NAME: instance_909
TYPE: TSP
DIMENSION: 20
EDGE_WEIGHT_TYPE: EUC_2D
NODE_COORD_SECTION
0 74.37 50.37
1 41.30 72.17
2 55.19 50.07
3 19.57 67.72
4 98.93 45.23
5 45.75 13.58
6 18.27 78.90
7 12.83 63.68
8 74.36 0.33
9 29.20 32.01
10 97.98 56.65
11 98.89 64.08
12 16.39 20.60
13 2.59 93.39
14 94.38 39.26
15 30.65 66.47
16 90.77 77.65
17 28.07 85.58
18 69.39 58.82
19 60.06 52.41
EOF
